Optimal - objective value 6070.00000000
      1 x_0_1                    1                       0
      9 x_1_4                    1                       0
     13 x_2_3                    1                       0
     15 x_3_0                    1                       0
     22 x_4_2                    1                       0
     36 y_0_1_1_4                1                    1881
     37 y_0_1_3_0                1                    3953
     77 y_2_3_3_0                1                     236
